p cnf 400 1
400 0
w 1 0.561057
w 2 1 0
w 2 -1 1
w 3 2 1
w 3 -2 0
w 4 3 1
w 4 -3 0
w 5 4 0
w 5 -4 1
w 6 5 1
w 6 -5 0
w 7 6 0
w 7 -6 1
w 8 7 0
w 8 -7 1
w 9 8 0
w 9 -8 1
w 10 9 0
w 10 -9 1
w 11 10 1
w 11 -10 0
w 12 11 0
w 12 -11 1
w 13 12 1
w 13 -12 0
w 14 13 0
w 14 -13 1
w 15 14 0
w 15 -14 1
w 16 15 0
w 16 -15 1
w 17 16 0.435085
w 17 -16 0.714902
w 18 17 0.182226
w 18 -17 0.0569069
w 19 18 1
w 19 -18 0
w 20 19 0
w 20 -19 1
w 21 1 1
w 21 -1 0
w 22 21 2 0
w 22 21 -2 0
w 22 -21 2 1
w 22 -21 -2 0
w 23 22 3 1
w 23 22 -3 0
w 23 -22 3 0
w 23 -22 -3 0
w 24 23 4 0
w 24 23 -4 0
w 24 -23 4 0
w 24 -23 -4 1
w 25 24 5 1
w 25 24 -5 0
w 25 -24 5 0
w 25 -24 -5 1
w 26 25 6 1
w 26 25 -6 1
w 26 -25 6 1
w 26 -25 -6 0
w 27 26 7 0
w 27 26 -7 1
w 27 -26 7 0
w 27 -26 -7 1
w 28 27 8 0
w 28 27 -8 1
w 28 -27 8 1
w 28 -27 -8 1
w 29 28 9 0
w 29 28 -9 0
w 29 -28 9 0
w 29 -28 -9 1
w 30 29 10 0
w 30 29 -10 1
w 30 -29 10 1
w 30 -29 -10 1
w 31 30 11 1
w 31 30 -11 0
w 31 -30 11 0
w 31 -30 -11 0
w 32 31 12 1
w 32 31 -12 1
w 32 -31 12 1
w 32 -31 -12 0
w 33 32 13 1
w 33 32 -13 1
w 33 -32 13 0
w 33 -32 -13 0
w 34 33 14 1
w 34 33 -14 0
w 34 -33 14 1
w 34 -33 -14 0
w 35 34 15 0
w 35 34 -15 1
w 35 -34 15 0
w 35 -34 -15 0
w 36 35 16 1
w 36 35 -16 1
w 36 -35 16 1
w 36 -35 -16 0
w 37 36 17 0
w 37 36 -17 0
w 37 -36 17 1
w 37 -36 -17 0
w 38 37 18 0
w 38 37 -18 1
w 38 -37 18 0
w 38 -37 -18 0
w 39 38 19 0
w 39 38 -19 1
w 39 -38 19 0
w 39 -38 -19 0
w 40 39 20 0
w 40 39 -20 0
w 40 -39 20 1
w 40 -39 -20 0
w 41 21 1
w 41 -21 0
w 42 41 22 1
w 42 41 -22 1
w 42 -41 22 0
w 42 -41 -22 0
w 43 42 23 0.0495538
w 43 42 -23 0.436308
w 43 -42 23 0.466982
w 43 -42 -23 0.0914075
w 44 43 24 1
w 44 43 -24 1
w 44 -43 24 0
w 44 -43 -24 1
w 45 44 25 0
w 45 44 -25 0
w 45 -44 25 0
w 45 -44 -25 1
w 46 45 26 0
w 46 45 -26 1
w 46 -45 26 0
w 46 -45 -26 1
w 47 46 27 1
w 47 46 -27 1
w 47 -46 27 0
w 47 -46 -27 0
w 48 47 28 0
w 48 47 -28 0
w 48 -47 28 1
w 48 -47 -28 0
w 49 48 29 0
w 49 48 -29 1
w 49 -48 29 0
w 49 -48 -29 1
w 50 49 30 1
w 50 49 -30 0
w 50 -49 30 1
w 50 -49 -30 1
w 51 50 31 0
w 51 50 -31 1
w 51 -50 31 0
w 51 -50 -31 0
w 52 51 32 0
w 52 51 -32 1
w 52 -51 32 1
w 52 -51 -32 1
w 53 52 33 1
w 53 52 -33 0
w 53 -52 33 1
w 53 -52 -33 1
w 54 53 34 0.235538
w 54 53 -34 0.156776
w 54 -53 34 0.164724
w 54 -53 -34 0.843414
w 55 54 35 1
w 55 54 -35 1
w 55 -54 35 0
w 55 -54 -35 1
w 56 55 36 1
w 56 55 -36 0
w 56 -55 36 0
w 56 -55 -36 0
w 57 56 37 0
w 57 56 -37 1
w 57 -56 37 0
w 57 -56 -37 0
w 58 57 38 0
w 58 57 -38 1
w 58 -57 38 1
w 58 -57 -38 1
w 59 58 39 0
w 59 58 -39 1
w 59 -58 39 1
w 59 -58 -39 1
w 60 59 40 1
w 60 59 -40 1
w 60 -59 40 0
w 60 -59 -40 0
w 61 41 0
w 61 -41 1
w 62 61 42 0
w 62 61 -42 1
w 62 -61 42 1
w 62 -61 -42 0
w 63 62 43 1
w 63 62 -43 0
w 63 -62 43 0
w 63 -62 -43 1
w 64 63 44 1
w 64 63 -44 1
w 64 -63 44 1
w 64 -63 -44 0
w 65 64 45 0
w 65 64 -45 1
w 65 -64 45 0
w 65 -64 -45 0
w 66 65 46 1
w 66 65 -46 1
w 66 -65 46 0
w 66 -65 -46 0
w 67 66 47 1
w 67 66 -47 0
w 67 -66 47 1
w 67 -66 -47 1
w 68 67 48 0.166411
w 68 67 -48 0.566235
w 68 -67 48 0.312512
w 68 -67 -48 0.303141
w 69 68 49 1
w 69 68 -49 0
w 69 -68 49 1
w 69 -68 -49 0
w 70 69 50 1
w 70 69 -50 1
w 70 -69 50 0
w 70 -69 -50 0
w 71 70 51 0
w 71 70 -51 0
w 71 -70 51 1
w 71 -70 -51 0
w 72 71 52 0
w 72 71 -52 1
w 72 -71 52 1
w 72 -71 -52 0
w 73 72 53 0
w 73 72 -53 1
w 73 -72 53 1
w 73 -72 -53 1
w 74 73 54 0
w 74 73 -54 1
w 74 -73 54 1
w 74 -73 -54 0
w 75 74 55 0
w 75 74 -55 1
w 75 -74 55 1
w 75 -74 -55 1
w 76 75 56 0
w 76 75 -56 0
w 76 -75 56 1
w 76 -75 -56 0
w 77 76 57 0.604478
w 77 76 -57 0.709775
w 77 -76 57 0.414308
w 77 -76 -57 0.358732
w 78 77 58 0
w 78 77 -58 1
w 78 -77 58 0
w 78 -77 -58 1
w 79 78 59 0
w 79 78 -59 0
w 79 -78 59 0
w 79 -78 -59 1
w 80 79 60 0
w 80 79 -60 0
w 80 -79 60 0
w 80 -79 -60 1
w 81 61 0.186993
w 81 -61 0.472316
w 82 81 62 1
w 82 81 -62 0
w 82 -81 62 1
w 82 -81 -62 0
w 83 82 63 0.173411
w 83 82 -63 0.345601
w 83 -82 63 0.952222
w 83 -82 -63 0.777888
w 84 83 64 0
w 84 83 -64 0
w 84 -83 64 1
w 84 -83 -64 0
w 85 84 65 1
w 85 84 -65 1
w 85 -84 65 0
w 85 -84 -65 1
w 86 85 66 0
w 86 85 -66 1
w 86 -85 66 1
w 86 -85 -66 0
w 87 86 67 0
w 87 86 -67 1
w 87 -86 67 1
w 87 -86 -67 1
w 88 87 68 0
w 88 87 -68 0
w 88 -87 68 1
w 88 -87 -68 0
w 89 88 69 1
w 89 88 -69 1
w 89 -88 69 0
w 89 -88 -69 0
w 90 89 70 0
w 90 89 -70 1
w 90 -89 70 1
w 90 -89 -70 0
w 91 90 71 1
w 91 90 -71 0
w 91 -90 71 0
w 91 -90 -71 0
w 92 91 72 0
w 92 91 -72 1
w 92 -91 72 1
w 92 -91 -72 1
w 93 92 73 0
w 93 92 -73 0
w 93 -92 73 0
w 93 -92 -73 1
w 94 93 74 0
w 94 93 -74 1
w 94 -93 74 0
w 94 -93 -74 1
w 95 94 75 1
w 95 94 -75 0
w 95 -94 75 1
w 95 -94 -75 1
w 96 95 76 1
w 96 95 -76 0
w 96 -95 76 0
w 96 -95 -76 1
w 97 96 77 1
w 97 96 -77 1
w 97 -96 77 1
w 97 -96 -77 0
w 98 97 78 0
w 98 97 -78 1
w 98 -97 78 0
w 98 -97 -78 1
w 99 98 79 0
w 99 98 -79 1
w 99 -98 79 0
w 99 -98 -79 1
w 100 99 80 0
w 100 99 -80 1
w 100 -99 80 0
w 100 -99 -80 0
w 101 81 1
w 101 -81 0
w 102 101 82 0.207262
w 102 101 -82 0.0957651
w 102 -101 82 0.444403
w 102 -101 -82 0.597982
w 103 102 83 1
w 103 102 -83 1
w 103 -102 83 1
w 103 -102 -83 0
w 104 103 84 0
w 104 103 -84 1
w 104 -103 84 1
w 104 -103 -84 0
w 105 104 85 0
w 105 104 -85 0
w 105 -104 85 0
w 105 -104 -85 1
w 106 105 86 0
w 106 105 -86 1
w 106 -105 86 0
w 106 -105 -86 0
w 107 106 87 1
w 107 106 -87 0
w 107 -106 87 0
w 107 -106 -87 0
w 108 107 88 1
w 108 107 -88 0
w 108 -107 88 0
w 108 -107 -88 1
w 109 108 89 0
w 109 108 -89 0
w 109 -108 89 1
w 109 -108 -89 1
w 110 109 90 0
w 110 109 -90 1
w 110 -109 90 0
w 110 -109 -90 1
w 111 110 91 1
w 111 110 -91 1
w 111 -110 91 0
w 111 -110 -91 0
w 112 111 92 0.89159
w 112 111 -92 0.958764
w 112 -111 92 0.136088
w 112 -111 -92 0.483449
w 113 112 93 0
w 113 112 -93 1
w 113 -112 93 0
w 113 -112 -93 0
w 114 113 94 0
w 114 113 -94 1
w 114 -113 94 0
w 114 -113 -94 1
w 115 114 95 0.92538
w 115 114 -95 0.496314
w 115 -114 95 0.533123
w 115 -114 -95 0.815336
w 116 115 96 1
w 116 115 -96 0
w 116 -115 96 1
w 116 -115 -96 1
w 117 116 97 1
w 117 116 -97 1
w 117 -116 97 1
w 117 -116 -97 0
w 118 117 98 0
w 118 117 -98 1
w 118 -117 98 1
w 118 -117 -98 1
w 119 118 99 1
w 119 118 -99 0
w 119 -118 99 1
w 119 -118 -99 1
w 120 119 100 0
w 120 119 -100 0
w 120 -119 100 0
w 120 -119 -100 1
w 121 101 1
w 121 -101 0
w 122 121 102 0.768205
w 122 121 -102 0.086152
w 122 -121 102 0.104975
w 122 -121 -102 0.930438
w 123 122 103 0.851581
w 123 122 -103 0.532693
w 123 -122 103 0.183102
w 123 -122 -103 0.482767
w 124 123 104 1
w 124 123 -104 1
w 124 -123 104 1
w 124 -123 -104 0
w 125 124 105 0
w 125 124 -105 0
w 125 -124 105 1
w 125 -124 -105 1
w 126 125 106 1
w 126 125 -106 0
w 126 -125 106 1
w 126 -125 -106 1
w 127 126 107 1
w 127 126 -107 1
w 127 -126 107 1
w 127 -126 -107 0
w 128 127 108 1
w 128 127 -108 0
w 128 -127 108 1
w 128 -127 -108 1
w 129 128 109 1
w 129 128 -109 0
w 129 -128 109 1
w 129 -128 -109 1
w 130 129 110 0
w 130 129 -110 1
w 130 -129 110 0
w 130 -129 -110 1
w 131 130 111 0
w 131 130 -111 1
w 131 -130 111 1
w 131 -130 -111 1
w 132 131 112 1
w 132 131 -112 1
w 132 -131 112 1
w 132 -131 -112 0
w 133 132 113 1
w 133 132 -113 0
w 133 -132 113 1
w 133 -132 -113 1
w 134 133 114 0.969323
w 134 133 -114 0.9401
w 134 -133 114 0.873671
w 134 -133 -114 0.19772
w 135 134 115 1
w 135 134 -115 0
w 135 -134 115 1
w 135 -134 -115 1
w 136 135 116 1
w 136 135 -116 0
w 136 -135 116 0
w 136 -135 -116 0
w 137 136 117 0
w 137 136 -117 1
w 137 -136 117 0
w 137 -136 -117 1
w 138 137 118 1
w 138 137 -118 0
w 138 -137 118 1
w 138 -137 -118 1
w 139 138 119 0
w 139 138 -119 1
w 139 -138 119 0
w 139 -138 -119 0
w 140 139 120 1
w 140 139 -120 0
w 140 -139 120 0
w 140 -139 -120 1
w 141 121 0
w 141 -121 1
w 142 141 122 1
w 142 141 -122 1
w 142 -141 122 0
w 142 -141 -122 1
w 143 142 123 0
w 143 142 -123 1
w 143 -142 123 1
w 143 -142 -123 0
w 144 143 124 0
w 144 143 -124 1
w 144 -143 124 0
w 144 -143 -124 0
w 145 144 125 0.834774
w 145 144 -125 0.767541
w 145 -144 125 0.766497
w 145 -144 -125 0.248424
w 146 145 126 1
w 146 145 -126 0
w 146 -145 126 1
w 146 -145 -126 0
w 147 146 127 1
w 147 146 -127 1
w 147 -146 127 0
w 147 -146 -127 1
w 148 147 128 0.558475
w 148 147 -128 0.304503
w 148 -147 128 0.882452
w 148 -147 -128 0.378335
w 149 148 129 0
w 149 148 -129 1
w 149 -148 129 0
w 149 -148 -129 1
w 150 149 130 0
w 150 149 -130 1
w 150 -149 130 0
w 150 -149 -130 1
w 151 150 131 1
w 151 150 -131 1
w 151 -150 131 0
w 151 -150 -131 0
w 152 151 132 0
w 152 151 -132 1
w 152 -151 132 0
w 152 -151 -132 1
w 153 152 133 0
w 153 152 -133 1
w 153 -152 133 0
w 153 -152 -133 1
w 154 153 134 1
w 154 153 -134 0
w 154 -153 134 1
w 154 -153 -134 1
w 155 154 135 0
w 155 154 -135 0
w 155 -154 135 0
w 155 -154 -135 1
w 156 155 136 0.261685
w 156 155 -136 0.512714
w 156 -155 136 0.896008
w 156 -155 -136 0.923313
w 157 156 137 0.758664
w 157 156 -137 0.419714
w 157 -156 137 0.160916
w 157 -156 -137 0.387817
w 158 157 138 0
w 158 157 -138 1
w 158 -157 138 0
w 158 -157 -138 1
w 159 158 139 0
w 159 158 -139 0
w 159 -158 139 1
w 159 -158 -139 1
w 160 159 140 0
w 160 159 -140 0
w 160 -159 140 0
w 160 -159 -140 1
w 161 141 0
w 161 -141 1
w 162 161 142 1
w 162 161 -142 0
w 162 -161 142 0
w 162 -161 -142 0
w 163 162 143 1
w 163 162 -143 0
w 163 -162 143 0
w 163 -162 -143 0
w 164 163 144 0
w 164 163 -144 0
w 164 -163 144 1
w 164 -163 -144 0
w 165 164 145 0
w 165 164 -145 0
w 165 -164 145 1
w 165 -164 -145 1
w 166 165 146 0
w 166 165 -146 0
w 166 -165 146 0
w 166 -165 -146 1
w 167 166 147 0
w 167 166 -147 1
w 167 -166 147 1
w 167 -166 -147 1
w 168 167 148 1
w 168 167 -148 0
w 168 -167 148 1
w 168 -167 -148 1
w 169 168 149 0
w 169 168 -149 1
w 169 -168 149 1
w 169 -168 -149 1
w 170 169 150 0
w 170 169 -150 1
w 170 -169 150 1
w 170 -169 -150 0
w 171 170 151 0.77603
w 171 170 -151 0.743252
w 171 -170 151 0.849619
w 171 -170 -151 0.862101
w 172 171 152 0
w 172 171 -152 0
w 172 -171 152 0
w 172 -171 -152 1
w 173 172 153 1
w 173 172 -153 0
w 173 -172 153 0
w 173 -172 -153 0
w 174 173 154 0.444744
w 174 173 -154 0.853266
w 174 -173 154 0.147046
w 174 -173 -154 0.180785
w 175 174 155 0
w 175 174 -155 1
w 175 -174 155 0
w 175 -174 -155 1
w 176 175 156 0
w 176 175 -156 1
w 176 -175 156 1
w 176 -175 -156 1
w 177 176 157 0
w 177 176 -157 1
w 177 -176 157 1
w 177 -176 -157 0
w 178 177 158 1
w 178 177 -158 1
w 178 -177 158 0
w 178 -177 -158 1
w 179 178 159 0
w 179 178 -159 0
w 179 -178 159 1
w 179 -178 -159 0
w 180 179 160 0
w 180 179 -160 1
w 180 -179 160 0
w 180 -179 -160 1
w 181 161 0.417326
w 181 -161 0.268599
w 182 181 162 0
w 182 181 -162 0
w 182 -181 162 1
w 182 -181 -162 0
w 183 182 163 0
w 183 182 -163 0
w 183 -182 163 0
w 183 -182 -163 1
w 184 183 164 0
w 184 183 -164 0
w 184 -183 164 0
w 184 -183 -164 1
w 185 184 165 0.852618
w 185 184 -165 0.827679
w 185 -184 165 0.0475466
w 185 -184 -165 0.614629
w 186 185 166 1
w 186 185 -166 0
w 186 -185 166 1
w 186 -185 -166 1
w 187 186 167 1
w 187 186 -167 1
w 187 -186 167 1
w 187 -186 -167 0
w 188 187 168 0
w 188 187 -168 1
w 188 -187 168 1
w 188 -187 -168 0
w 189 188 169 1
w 189 188 -169 0
w 189 -188 169 1
w 189 -188 -169 0
w 190 189 170 1
w 190 189 -170 0
w 190 -189 170 1
w 190 -189 -170 1
w 191 190 171 0.328219
w 191 190 -171 0.279775
w 191 -190 171 0.535915
w 191 -190 -171 0.395314
w 192 191 172 1
w 192 191 -172 1
w 192 -191 172 0
w 192 -191 -172 1
w 193 192 173 0
w 193 192 -173 1
w 193 -192 173 0
w 193 -192 -173 1
w 194 193 174 1
w 194 193 -174 0
w 194 -193 174 1
w 194 -193 -174 0
w 195 194 175 1
w 195 194 -175 1
w 195 -194 175 0
w 195 -194 -175 0
w 196 195 176 1
w 196 195 -176 1
w 196 -195 176 0
w 196 -195 -176 1
w 197 196 177 1
w 197 196 -177 0
w 197 -196 177 0
w 197 -196 -177 1
w 198 197 178 0.783863
w 198 197 -178 0.418053
w 198 -197 178 0.721062
w 198 -197 -178 0.119293
w 199 198 179 1
w 199 198 -179 1
w 199 -198 179 0
w 199 -198 -179 0
w 200 199 180 0.24461
w 200 199 -180 0.200322
w 200 -199 180 0.770061
w 200 -199 -180 0.415314
w 201 181 0
w 201 -181 1
w 202 201 182 1
w 202 201 -182 0
w 202 -201 182 1
w 202 -201 -182 0
w 203 202 183 0
w 203 202 -183 1
w 203 -202 183 0
w 203 -202 -183 1
w 204 203 184 0
w 204 203 -184 1
w 204 -203 184 0
w 204 -203 -184 0
w 205 204 185 1
w 205 204 -185 1
w 205 -204 185 0
w 205 -204 -185 1
w 206 205 186 0
w 206 205 -186 0
w 206 -205 186 0
w 206 -205 -186 1
w 207 206 187 0
w 207 206 -187 1
w 207 -206 187 1
w 207 -206 -187 0
w 208 207 188 0
w 208 207 -188 1
w 208 -207 188 0
w 208 -207 -188 1
w 209 208 189 1
w 209 208 -189 0
w 209 -208 189 1
w 209 -208 -189 0
w 210 209 190 1
w 210 209 -190 1
w 210 -209 190 0
w 210 -209 -190 0
w 211 210 191 1
w 211 210 -191 1
w 211 -210 191 0
w 211 -210 -191 0
w 212 211 192 1
w 212 211 -192 0
w 212 -211 192 0
w 212 -211 -192 1
w 213 212 193 0.0140038
w 213 212 -193 0.882261
w 213 -212 193 0.891431
w 213 -212 -193 0.000105728
w 214 213 194 0
w 214 213 -194 1
w 214 -213 194 1
w 214 -213 -194 1
w 215 214 195 0
w 215 214 -195 0
w 215 -214 195 1
w 215 -214 -195 1
w 216 215 196 0
w 216 215 -196 1
w 216 -215 196 1
w 216 -215 -196 0
w 217 216 197 0
w 217 216 -197 1
w 217 -216 197 0
w 217 -216 -197 1
w 218 217 198 0
w 218 217 -198 0
w 218 -217 198 0
w 218 -217 -198 1
w 219 218 199 0
w 219 218 -199 0
w 219 -218 199 0
w 219 -218 -199 1
w 220 219 200 0
w 220 219 -200 0
w 220 -219 200 1
w 220 -219 -200 0
w 221 201 1
w 221 -201 0
w 222 221 202 1
w 222 221 -202 0
w 222 -221 202 0
w 222 -221 -202 1
w 223 222 203 1
w 223 222 -203 0
w 223 -222 203 1
w 223 -222 -203 0
w 224 223 204 1
w 224 223 -204 0
w 224 -223 204 0
w 224 -223 -204 1
w 225 224 205 0
w 225 224 -205 1
w 225 -224 205 0
w 225 -224 -205 0
w 226 225 206 0
w 226 225 -206 0
w 226 -225 206 1
w 226 -225 -206 0
w 227 226 207 1
w 227 226 -207 1
w 227 -226 207 1
w 227 -226 -207 0
w 228 227 208 0
w 228 227 -208 1
w 228 -227 208 1
w 228 -227 -208 1
w 229 228 209 0
w 229 228 -209 1
w 229 -228 209 1
w 229 -228 -209 0
w 230 229 210 0
w 230 229 -210 1
w 230 -229 210 0
w 230 -229 -210 1
w 231 230 211 0
w 231 230 -211 1
w 231 -230 211 0
w 231 -230 -211 1
w 232 231 212 0
w 232 231 -212 1
w 232 -231 212 0
w 232 -231 -212 0
w 233 232 213 0
w 233 232 -213 1
w 233 -232 213 1
w 233 -232 -213 0
w 234 233 214 1
w 234 233 -214 0
w 234 -233 214 1
w 234 -233 -214 0
w 235 234 215 1
w 235 234 -215 1
w 235 -234 215 1
w 235 -234 -215 0
w 236 235 216 1
w 236 235 -216 1
w 236 -235 216 0
w 236 -235 -216 1
w 237 236 217 0
w 237 236 -217 0
w 237 -236 217 1
w 237 -236 -217 0
w 238 237 218 0
w 238 237 -218 1
w 238 -237 218 0
w 238 -237 -218 1
w 239 238 219 1
w 239 238 -219 1
w 239 -238 219 1
w 239 -238 -219 0
w 240 239 220 1
w 240 239 -220 1
w 240 -239 220 1
w 240 -239 -220 0
w 241 221 0
w 241 -221 1
w 242 241 222 1
w 242 241 -222 1
w 242 -241 222 1
w 242 -241 -222 0
w 243 242 223 0
w 243 242 -223 1
w 243 -242 223 0
w 243 -242 -223 1
w 244 243 224 0
w 244 243 -224 0
w 244 -243 224 0
w 244 -243 -224 1
w 245 244 225 1
w 245 244 -225 0
w 245 -244 225 0
w 245 -244 -225 0
w 246 245 226 1
w 246 245 -226 1
w 246 -245 226 1
w 246 -245 -226 0
w 247 246 227 0.961591
w 247 246 -227 0.426055
w 247 -246 227 0.931069
w 247 -246 -227 0.796738
w 248 247 228 1
w 248 247 -228 0
w 248 -247 228 1
w 248 -247 -228 1
w 249 248 229 0
w 249 248 -229 1
w 249 -248 229 1
w 249 -248 -229 1
w 250 249 230 1
w 250 249 -230 1
w 250 -249 230 1
w 250 -249 -230 0
w 251 250 231 0.857426
w 251 250 -231 0.30881
w 251 -250 231 0.126746
w 251 -250 -231 0.855209
w 252 251 232 1
w 252 251 -232 0
w 252 -251 232 1
w 252 -251 -232 1
w 253 252 233 0.291999
w 253 252 -233 0.435341
w 253 -252 233 0.838225
w 253 -252 -233 0.088737
w 254 253 234 0
w 254 253 -234 1
w 254 -253 234 1
w 254 -253 -234 1
w 255 254 235 1
w 255 254 -235 1
w 255 -254 235 1
w 255 -254 -235 0
w 256 255 236 0
w 256 255 -236 0
w 256 -255 236 0
w 256 -255 -236 1
w 257 256 237 0
w 257 256 -237 1
w 257 -256 237 0
w 257 -256 -237 0
w 258 257 238 0
w 258 257 -238 1
w 258 -257 238 0
w 258 -257 -238 1
w 259 258 239 0
w 259 258 -239 0
w 259 -258 239 0
w 259 -258 -239 1
w 260 259 240 0
w 260 259 -240 0
w 260 -259 240 1
w 260 -259 -240 1
w 261 241 1
w 261 -241 0
w 262 261 242 0
w 262 261 -242 0
w 262 -261 242 1
w 262 -261 -242 0
w 263 262 243 1
w 263 262 -243 0
w 263 -262 243 0
w 263 -262 -243 0
w 264 263 244 0.251857
w 264 263 -244 0.299333
w 264 -263 244 0.507432
w 264 -263 -244 0.0166189
w 265 264 245 1
w 265 264 -245 0
w 265 -264 245 1
w 265 -264 -245 0
w 266 265 246 1
w 266 265 -246 0
w 266 -265 246 0
w 266 -265 -246 1
w 267 266 247 0
w 267 266 -247 0
w 267 -266 247 1
w 267 -266 -247 1
w 268 267 248 0
w 268 267 -248 0
w 268 -267 248 1
w 268 -267 -248 1
w 269 268 249 0
w 269 268 -249 0
w 269 -268 249 0
w 269 -268 -249 1
w 270 269 250 1
w 270 269 -250 1
w 270 -269 250 0
w 270 -269 -250 1
w 271 270 251 0
w 271 270 -251 0
w 271 -270 251 1
w 271 -270 -251 1
w 272 271 252 1
w 272 271 -252 1
w 272 -271 252 0
w 272 -271 -252 1
w 273 272 253 1
w 273 272 -253 1
w 273 -272 253 0
w 273 -272 -253 0
w 274 273 254 1
w 274 273 -254 0
w 274 -273 254 1
w 274 -273 -254 0
w 275 274 255 1
w 275 274 -255 1
w 275 -274 255 0
w 275 -274 -255 1
w 276 275 256 0.987917
w 276 275 -256 0.670805
w 276 -275 256 0.311162
w 276 -275 -256 0.0464791
w 277 276 257 1
w 277 276 -257 0
w 277 -276 257 1
w 277 -276 -257 1
w 278 277 258 1
w 278 277 -258 0
w 278 -277 258 0
w 278 -277 -258 0
w 279 278 259 1
w 279 278 -259 0
w 279 -278 259 0
w 279 -278 -259 0
w 280 279 260 0.558726
w 280 279 -260 0.179848
w 280 -279 260 0.835438
w 280 -279 -260 0.945279
w 281 261 0.676091
w 281 -261 0.78816
w 282 281 262 0
w 282 281 -262 1
w 282 -281 262 1
w 282 -281 -262 1
w 283 282 263 1
w 283 282 -263 1
w 283 -282 263 0
w 283 -282 -263 1
w 284 283 264 1
w 284 283 -264 1
w 284 -283 264 1
w 284 -283 -264 0
w 285 284 265 1
w 285 284 -265 1
w 285 -284 265 0
w 285 -284 -265 1
w 286 285 266 1
w 286 285 -266 0
w 286 -285 266 1
w 286 -285 -266 0
w 287 286 267 1
w 287 286 -267 1
w 287 -286 267 0
w 287 -286 -267 1
w 288 287 268 1
w 288 287 -268 0
w 288 -287 268 0
w 288 -287 -268 0
w 289 288 269 1
w 289 288 -269 0
w 289 -288 269 0
w 289 -288 -269 0
w 290 289 270 1
w 290 289 -270 1
w 290 -289 270 0
w 290 -289 -270 0
w 291 290 271 1
w 291 290 -271 1
w 291 -290 271 0
w 291 -290 -271 0
w 292 291 272 1
w 292 291 -272 0
w 292 -291 272 0
w 292 -291 -272 0
w 293 292 273 1
w 293 292 -273 1
w 293 -292 273 0
w 293 -292 -273 0
w 294 293 274 0
w 294 293 -274 0
w 294 -293 274 0
w 294 -293 -274 1
w 295 294 275 0
w 295 294 -275 1
w 295 -294 275 1
w 295 -294 -275 0
w 296 295 276 0
w 296 295 -276 1
w 296 -295 276 1
w 296 -295 -276 0
w 297 296 277 1
w 297 296 -277 0
w 297 -296 277 1
w 297 -296 -277 1
w 298 297 278 1
w 298 297 -278 0
w 298 -297 278 0
w 298 -297 -278 1
w 299 298 279 1
w 299 298 -279 0
w 299 -298 279 0
w 299 -298 -279 0
w 300 299 280 1
w 300 299 -280 0
w 300 -299 280 1
w 300 -299 -280 0
w 301 281 1
w 301 -281 0
w 302 301 282 0
w 302 301 -282 1
w 302 -301 282 0
w 302 -301 -282 0
w 303 302 283 0.964504
w 303 302 -283 0.646729
w 303 -302 283 0.041425
w 303 -302 -283 0.230296
w 304 303 284 0
w 304 303 -284 0
w 304 -303 284 1
w 304 -303 -284 1
w 305 304 285 1
w 305 304 -285 0
w 305 -304 285 0
w 305 -304 -285 1
w 306 305 286 0
w 306 305 -286 0
w 306 -305 286 0
w 306 -305 -286 1
w 307 306 287 0
w 307 306 -287 0
w 307 -306 287 1
w 307 -306 -287 1
w 308 307 288 0
w 308 307 -288 1
w 308 -307 288 0
w 308 -307 -288 1
w 309 308 289 0
w 309 308 -289 1
w 309 -308 289 0
w 309 -308 -289 1
w 310 309 290 0.250548
w 310 309 -290 0.266515
w 310 -309 290 0.583657
w 310 -309 -290 0.253696
w 311 310 291 0.173981
w 311 310 -291 0.848065
w 311 -310 291 0.442526
w 311 -310 -291 0.584648
w 312 311 292 0
w 312 311 -292 0
w 312 -311 292 0
w 312 -311 -292 1
w 313 312 293 0.824742
w 313 312 -293 0.135872
w 313 -312 293 0.849013
w 313 -312 -293 0.650328
w 314 313 294 1
w 314 313 -294 0
w 314 -313 294 0
w 314 -313 -294 0
w 315 314 295 0
w 315 314 -295 1
w 315 -314 295 1
w 315 -314 -295 1
w 316 315 296 0
w 316 315 -296 0
w 316 -315 296 1
w 316 -315 -296 1
w 317 316 297 0
w 317 316 -297 0
w 317 -316 297 1
w 317 -316 -297 0
w 318 317 298 1
w 318 317 -298 0
w 318 -317 298 1
w 318 -317 -298 1
w 319 318 299 1
w 319 318 -299 0
w 319 -318 299 0
w 319 -318 -299 1
w 320 319 300 0
w 320 319 -300 0
w 320 -319 300 1
w 320 -319 -300 0
w 321 301 0
w 321 -301 1
w 322 321 302 1
w 322 321 -302 0
w 322 -321 302 1
w 322 -321 -302 0
w 323 322 303 1
w 323 322 -303 0
w 323 -322 303 1
w 323 -322 -303 1
w 324 323 304 0
w 324 323 -304 0
w 324 -323 304 0
w 324 -323 -304 1
w 325 324 305 0
w 325 324 -305 0
w 325 -324 305 0
w 325 -324 -305 1
w 326 325 306 1
w 326 325 -306 1
w 326 -325 306 1
w 326 -325 -306 0
w 327 326 307 1
w 327 326 -307 1
w 327 -326 307 1
w 327 -326 -307 0
w 328 327 308 1
w 328 327 -308 1
w 328 -327 308 1
w 328 -327 -308 0
w 329 328 309 1
w 329 328 -309 0
w 329 -328 309 0
w 329 -328 -309 1
w 330 329 310 0
w 330 329 -310 1
w 330 -329 310 1
w 330 -329 -310 1
w 331 330 311 0.908861
w 331 330 -311 0.703055
w 331 -330 311 0.295744
w 331 -330 -311 0.822209
w 332 331 312 0
w 332 331 -312 1
w 332 -331 312 0
w 332 -331 -312 1
w 333 332 313 0
w 333 332 -313 0
w 333 -332 313 0
w 333 -332 -313 1
w 334 333 314 0
w 334 333 -314 1
w 334 -333 314 0
w 334 -333 -314 1
w 335 334 315 0
w 335 334 -315 1
w 335 -334 315 1
w 335 -334 -315 0
w 336 335 316 0
w 336 335 -316 0
w 336 -335 316 1
w 336 -335 -316 1
w 337 336 317 0
w 337 336 -317 1
w 337 -336 317 1
w 337 -336 -317 1
w 338 337 318 1
w 338 337 -318 1
w 338 -337 318 0
w 338 -337 -318 0
w 339 338 319 0
w 339 338 -319 1
w 339 -338 319 1
w 339 -338 -319 0
w 340 339 320 1
w 340 339 -320 1
w 340 -339 320 0
w 340 -339 -320 1
w 341 321 0.770867
w 341 -321 0.383332
w 342 341 322 0
w 342 341 -322 0
w 342 -341 322 0
w 342 -341 -322 1
w 343 342 323 1
w 343 342 -323 0
w 343 -342 323 1
w 343 -342 -323 0
w 344 343 324 1
w 344 343 -324 0
w 344 -343 324 1
w 344 -343 -324 1
w 345 344 325 1
w 345 344 -325 0
w 345 -344 325 1
w 345 -344 -325 0
w 346 345 326 1
w 346 345 -326 0
w 346 -345 326 1
w 346 -345 -326 0
w 347 346 327 0
w 347 346 -327 1
w 347 -346 327 1
w 347 -346 -327 0
w 348 347 328 0
w 348 347 -328 0
w 348 -347 328 1
w 348 -347 -328 0
w 349 348 329 1
w 349 348 -329 0
w 349 -348 329 1
w 349 -348 -329 1
w 350 349 330 0
w 350 349 -330 0
w 350 -349 330 1
w 350 -349 -330 1
w 351 350 331 0
w 351 350 -331 1
w 351 -350 331 1
w 351 -350 -331 1
w 352 351 332 1
w 352 351 -332 1
w 352 -351 332 1
w 352 -351 -332 0
w 353 352 333 1
w 353 352 -333 0
w 353 -352 333 0
w 353 -352 -333 0
w 354 353 334 1
w 354 353 -334 0
w 354 -353 334 0
w 354 -353 -334 1
w 355 354 335 1
w 355 354 -335 0
w 355 -354 335 1
w 355 -354 -335 0
w 356 355 336 1
w 356 355 -336 0
w 356 -355 336 0
w 356 -355 -336 0
w 357 356 337 1
w 357 356 -337 0
w 357 -356 337 1
w 357 -356 -337 1
w 358 357 338 0
w 358 357 -338 0
w 358 -357 338 1
w 358 -357 -338 0
w 359 358 339 0
w 359 358 -339 1
w 359 -358 339 0
w 359 -358 -339 1
w 360 359 340 0.181028
w 360 359 -340 0.955484
w 360 -359 340 0.443635
w 360 -359 -340 0.00866012
w 361 341 0
w 361 -341 1
w 362 361 342 0.523843
w 362 361 -342 0.182261
w 362 -361 342 0.725715
w 362 -361 -342 0.570221
w 363 362 343 1
w 363 362 -343 0
w 363 -362 343 1
w 363 -362 -343 1
w 364 363 344 0
w 364 363 -344 0
w 364 -363 344 0
w 364 -363 -344 1
w 365 364 345 1
w 365 364 -345 1
w 365 -364 345 0
w 365 -364 -345 1
w 366 365 346 0
w 366 365 -346 0
w 366 -365 346 1
w 366 -365 -346 0
w 367 366 347 0
w 367 366 -347 0
w 367 -366 347 0
w 367 -366 -347 1
w 368 367 348 0
w 368 367 -348 0
w 368 -367 348 0
w 368 -367 -348 1
w 369 368 349 1
w 369 368 -349 1
w 369 -368 349 1
w 369 -368 -349 0
w 370 369 350 1
w 370 369 -350 0
w 370 -369 350 1
w 370 -369 -350 0
w 371 370 351 0
w 371 370 -351 1
w 371 -370 351 0
w 371 -370 -351 1
w 372 371 352 0
w 372 371 -352 1
w 372 -371 352 0
w 372 -371 -352 0
w 373 372 353 0
w 373 372 -353 1
w 373 -372 353 0
w 373 -372 -353 1
w 374 373 354 0
w 374 373 -354 1
w 374 -373 354 0
w 374 -373 -354 0
w 375 374 355 1
w 375 374 -355 1
w 375 -374 355 0
w 375 -374 -355 0
w 376 375 356 1
w 376 375 -356 0
w 376 -375 356 1
w 376 -375 -356 0
w 377 376 357 1
w 377 376 -357 1
w 377 -376 357 1
w 377 -376 -357 0
w 378 377 358 0
w 378 377 -358 0
w 378 -377 358 1
w 378 -377 -358 0
w 379 378 359 0
w 379 378 -359 1
w 379 -378 359 1
w 379 -378 -359 0
w 380 379 360 1
w 380 379 -360 1
w 380 -379 360 0
w 380 -379 -360 1
w 381 361 1
w 381 -361 0
w 382 381 362 0
w 382 381 -362 1
w 382 -381 362 0
w 382 -381 -362 0
w 383 382 363 1
w 383 382 -363 1
w 383 -382 363 0
w 383 -382 -363 0
w 384 383 364 0
w 384 383 -364 1
w 384 -383 364 0
w 384 -383 -364 1
w 385 384 365 1
w 385 384 -365 0
w 385 -384 365 0
w 385 -384 -365 0
w 386 385 366 0
w 386 385 -366 1
w 386 -385 366 1
w 386 -385 -366 1
w 387 386 367 1
w 387 386 -367 1
w 387 -386 367 1
w 387 -386 -367 0
w 388 387 368 0.127785
w 388 387 -368 0.907828
w 388 -387 368 0.23457
w 388 -387 -368 0.5874
w 389 388 369 0.658579
w 389 388 -369 0.332521
w 389 -388 369 0.206816
w 389 -388 -369 0.717912
w 390 389 370 0
w 390 389 -370 1
w 390 -389 370 1
w 390 -389 -370 1
w 391 390 371 0
w 391 390 -371 1
w 391 -390 371 0
w 391 -390 -371 0
w 392 391 372 0
w 392 391 -372 0
w 392 -391 372 1
w 392 -391 -372 0
w 393 392 373 0
w 393 392 -373 0
w 393 -392 373 0
w 393 -392 -373 1
w 394 393 374 0
w 394 393 -374 0
w 394 -393 374 0
w 394 -393 -374 1
w 395 394 375 0
w 395 394 -375 0
w 395 -394 375 1
w 395 -394 -375 1
w 396 395 376 1
w 396 395 -376 0
w 396 -395 376 1
w 396 -395 -376 1
w 397 396 377 1
w 397 396 -377 1
w 397 -396 377 1
w 397 -396 -377 0
w 398 397 378 1
w 398 397 -378 0
w 398 -397 378 0
w 398 -397 -378 0
w 399 398 379 1
w 399 398 -379 0
w 399 -398 379 0
w 399 -398 -379 0
w 400 399 380 0
w 400 399 -380 0
w 400 -399 380 0
w 400 -399 -380 1